7	7	7	7	4	7	7	7	7	4	7	7	4	7	7	7	4	7	7	7	7
7	4	7	4	7	7	4	7	4	5	5	4	5	4	5	5	5	4	7	4	7
7	7	4	5	4	7	4	4	5	4	5	4	5	5	4	5	5	5	4	7	7
7	4	5	5	5	4	5	5	5	5	5	5	5	5	5	5	5	5	5	4	7
7	7	4	5	5	5	5	5	5	5	4	5	5	5	5	5	5	5	4	7	7
7	4	5	5	5	5	4	5	5	5	5	4	5	5	5	4	5	5	5	4	7
4	5	5	5	5	5	5	5	5	5	5	4	5	5	4	5	5	5	5	5	4
4	5	5	4	5	5	5	5	4	5	5	5	5	5	5	5	5	5	5	5	4
4	5	5	5	4	5	5	5	5	4	5	5	5	4	5	5	5	4	5	5	4
4	5	5	5	5	5	5	5	5	5	5	5	4	5	5	5	4	5	5	5	4
4	5	5	5	5	5	5	4	5	5	5	5	4	5	5	5	5	5	5	5	4
7	4	5	5	5	5	5	5	4	5	5	4	5	5	5	5	5	5	5	4	7
7	7	4	5	5	4	5	5	5	4	5	5	5	5	5	4	5	5	4	7	7
7	7	4	5	5	5	4	5	5	5	4	5	5	5	4	5	5	5	4	7	7
7	7	4	5	5	5	5	4	5	5	5	5	5	4	5	5	5	5	4	7	7
7	7	7	4	5	5	5	4	5	5	5	5	5	4	5	5	5	4	7	7	7
7	7	7	7	4	5	5	5	5	5	5	5	5	5	5	5	4	7	7	7	7
7	7	7	7	4	5	5	4	5	5	4	5	5	4	5	5	4	7	7	7	7
7	7	7	7	7	4	5	4	5	4	5	4	5	4	7	4	7	7	7	7	7
7	7	7	7	7	7	7	4	5	5	4	5	5	4	7	7	7	7	7	7	7
7	7	7	7	7	7	7	4	5	5	5	5	5	4	7	7	7	7	7	7	7
7	7	7	7	7	7	7	4	5	5	5	5	5	4	7	7	7	7	7	7	7
7	7	7	7	7	7	7	4	5	5	5	5	5	4	7	7	7	7	7	7	7
7	7	7	7	7	7	7	4	5	5	5	5	5	4	7	7	7	7	7	7	7
7	7	7	7	7	7	7	4	5	5	5	5	5	4	7	7	7	7	7	7	7
7	7	7	7	7	7	7	4	5	5	5	5	5	4	7	7	7	7	7	7	7
7	7	7	7	7	7	7	3	2	2	2	2	2	3	7	7	7	7	7	7	7
7	7	7	7	7	7	7	3	2	2	2	2	2	3	7	7	7	7	7	7	7
7	7	7	7	7	7	3	2	2	2	3	2	2	2	3	7	7	7	7	7	7
7	7	7	7	7	3	2	2	2	2	2	3	2	2	2	3	7	7	7	7	7